
Gurobi 10.0.2 (linux64) logging started Mon 21 Aug 2023 07:33:33 PM -03

Set parameter LogFile to value "/home/ciro/Documents/ftsp-optimizer/Optimization/Data/Logs/burma14_3_1001_1001_2.log"
Gurobi Optimizer version 10.0.2 build v10.0.2rc0 (linux64)

CPU model: Intel(R) Core(TM) i7-7500U CPU @ 2.70GHz, instruction set [SSE2]
Thread count: 2 physical cores, 2 logical processors, using up to 2 threads

Optimize a model with 200 rows, 224 columns and 1079 nonzeros
Model fingerprint: 0xa9e1aa4d
Variable types: 14 continuous, 210 integer (210 binary)
Coefficient statistics:
  Matrix range     [1e+00, 2e+01]
  Objective range  [2e-01, 1e+01]
  Bounds range     [1e+00, 1e+01]
  RHS range        [1e+00, 1e+01]
Presolve removed 0 rows and 16 columns
Presolve time: 0.00s
Presolved: 200 rows, 208 columns, 2024 nonzeros
Variable types: 13 continuous, 195 integer (195 binary)
Found heuristic solution: objective 20.0611788

Root relaxation: objective 5.274538e+00, 32 iterations, 0.00 seconds (0.00 work units)

    Nodes    |    Current Node    |     Objective Bounds      |     Work
 Expl Unexpl |  Obj  Depth IntInf | Incumbent    BestBd   Gap | It/Node Time

     0     0    5.27454    0   12   20.06118    5.27454  73.7%     -    0s
H    0     0                      20.0294282    5.27454  73.7%     -    0s
     0     0    8.32386    0   24   20.02943    8.32386  58.4%     -    0s
H    0     0                      16.2157965    8.32386  48.7%     -    0s
     0     0    8.32438    0   18   16.21580    8.32438  48.7%     -    0s
     0     0    8.56009    0    6   16.21580    8.56009  47.2%     -    0s
H    0     0                      13.7936980    8.56009  37.9%     -    0s
     0     0    8.56009    0    6   13.79370    8.56009  37.9%     -    0s
     0     0    8.56009    0    6   13.79370    8.56009  37.9%     -    0s
     0     0    8.56009    0    6   13.79370    8.56009  37.9%     -    0s
     0     0    8.73334    0   12   13.79370    8.73334  36.7%     -    0s
     0     0    8.73334    0   21   13.79370    8.73334  36.7%     -    0s
     0     0    8.73334    0    6   13.79370    8.73334  36.7%     -    0s
     0     0    8.73334    0    6   13.79370    8.73334  36.7%     -    0s
     0     0    8.73334    0    6   13.79370    8.73334  36.7%     -    0s
     0     0    8.73334    0    6   13.79370    8.73334  36.7%     -    0s
     0     0    8.73334    0    6   13.79370    8.73334  36.7%     -    0s
H    0     0                      11.6583705    8.73334  25.1%     -    0s
     0     0    8.73334    0    6   11.65837    8.73334  25.1%     -    0s
H    0     0                      10.6445048    8.73334  18.0%     -    0s
     0     0    8.84004    0   12   10.64450    8.84004  17.0%     -    0s
H    0     0                      10.4251358    8.84004  15.2%     -    0s
     0     0    8.84004    0    6   10.42514    8.84004  15.2%     -    0s
     0     0    8.84004    0    6   10.42514    8.84004  15.2%     -    0s
     0     0    8.84004    0   21   10.42514    8.84004  15.2%     -    0s
     0     0    8.84004    0   28   10.42514    8.84004  15.2%     -    0s
     0     0    8.84004    0   25   10.42514    8.84004  15.2%     -    0s
     0     0    8.84004    0   25   10.42514    8.84004  15.2%     -    0s
     0     0    8.84004    0   25   10.42514    8.84004  15.2%     -    0s
     0     0    8.84004    0   28   10.42514    8.84004  15.2%     -    0s
     0     0    8.84004    0   28   10.42514    8.84004  15.2%     -    0s
     0     0    8.84004    0   26   10.42514    8.84004  15.2%     -    0s
     0     0    9.34583    0   12   10.42514    9.34583  10.4%     -    0s
     0     0    9.34583    0    6   10.42514    9.34583  10.4%     -    0s
     0     0    9.34583    0   21   10.42514    9.34583  10.4%     -    0s
     0     0    9.34583    0   28   10.42514    9.34583  10.4%     -    0s
     0     0    9.34583    0   26   10.42514    9.34583  10.4%     -    0s
     0     0    9.34583    0   26   10.42514    9.34583  10.4%     -    0s
     0     0    9.34583    0   25   10.42514    9.34583  10.4%     -    0s
     0     2    9.34583    0   25   10.42514    9.34583  10.4%     -    0s

Cutting planes:
  Gomory: 2
  Implied bound: 9
  MIR: 2
  RLT: 12

Explored 55 nodes (604 simplex iterations) in 0.24 seconds (0.11 work units)
Thread count was 2 (of 2 available processors)

Solution count 7: 10.4251 10.6445 11.6584 ... 20.0612

Optimal solution found (tolerance 1.00e-04)
Best objective 1.042513583120e+01, best bound 1.042513583120e+01, gap 0.0000%

Gurobi 10.0.2 (linux64) logging started Mon 21 Aug 2023 08:15:36 PM -03

Set parameter LogFile to value "/home/ciro/Documents/ftsp-optimizer/Optimization/Data/Logs/burma14_3_1001_1001_2.log"
Gurobi Optimizer version 10.0.2 build v10.0.2rc0 (linux64)

CPU model: Intel(R) Core(TM) i7-7500U CPU @ 2.70GHz, instruction set [SSE2]
Thread count: 2 physical cores, 2 logical processors, using up to 2 threads

Optimize a model with 187 rows, 224 columns and 1040 nonzeros
Model fingerprint: 0x8e66c040
Variable types: 14 continuous, 210 integer (210 binary)
Coefficient statistics:
  Matrix range     [1e+00, 2e+01]
  Objective range  [2e-01, 1e+01]
  Bounds range     [1e+00, 1e+01]
  RHS range        [1e+00, 1e+01]
Presolve removed 0 rows and 16 columns
Presolve time: 0.00s
Presolved: 187 rows, 208 columns, 2060 nonzeros
Variable types: 13 continuous, 195 integer (195 binary)

Root relaxation: objective 5.274538e+00, 31 iterations, 0.00 seconds (0.00 work units)

    Nodes    |    Current Node    |     Objective Bounds      |     Work
 Expl Unexpl |  Obj  Depth IntInf | Incumbent    BestBd   Gap | It/Node Time

     0     0    5.27454    0   12          -    5.27454      -     -    0s
H    0     0                      34.2223049    5.27454  84.6%     -    0s
H    0     0                      33.5511854    5.27454  84.3%     -    0s
     0     0    8.32386    0   18   33.55119    8.32386  75.2%     -    0s
H    0     0                      28.0072625    8.32386  70.3%     -    0s
     0     0    8.32438    0   18   28.00726    8.32438  70.3%     -    0s
     0     0    8.56009    0    6   28.00726    8.56009  69.4%     -    0s
H    0     0                      23.3291048    8.56009  63.3%     -    0s
     0     0    8.56009    0    6   23.32910    8.56009  63.3%     -    0s
H    0     0                      21.2374326    8.56009  59.7%     -    0s
     0     0    8.56009    0    6   21.23743    8.56009  59.7%     -    0s
     0     0    8.56009    0    6   21.23743    8.56009  59.7%     -    0s
H    0     0                      18.0660004    8.56009  52.6%     -    0s
H    0     0                      16.7189698    8.69312  48.0%     -    0s
     0     2    8.69312    0    6   16.71897    8.69312  48.0%     -    0s
H   39    33                      16.6651681    8.88395  46.7%   4.1    0s
H   95    67                      16.3959748    8.96097  45.3%   3.7    0s
*   98    67              17      14.8320094    8.96097  39.6%   3.8    0s
*  107    67              16      14.0163173    8.96097  36.1%   4.1    0s
*  225   104              12      11.0326777    9.52113  13.7%   5.0    0s
*  228   104              12      10.6791021    9.52113  10.8%   5.0    0s
*  301    65              15      10.4251358    9.94295  4.63%   4.9    0s

Cutting planes:
  Learned: 3
  Gomory: 4
  Implied bound: 11
  MIR: 5
  Inf proof: 2
  Mod-K: 2
  RLT: 14
  Relax-and-lift: 2

Explored 353 nodes (1779 simplex iterations) in 0.17 seconds (0.10 work units)
Thread count was 2 (of 2 available processors)

Solution count 10: 10.4251 10.6791 11.0327 ... 21.2374

Optimal solution found (tolerance 1.00e-04)
Best objective 1.042513583120e+01, best bound 1.042513583120e+01, gap 0.0000%

Gurobi 10.0.2 (linux64) logging started Mon 21 Aug 2023 08:19:05 PM -03

Set parameter LogFile to value "/home/ciro/Documents/ftsp-optimizer/Optimization/Data/Logs/burma14_3_1001_1001_2.log"
Gurobi Optimizer version 10.0.2 build v10.0.2rc0 (linux64)

CPU model: Intel(R) Core(TM) i7-7500U CPU @ 2.70GHz, instruction set [SSE2]
Thread count: 2 physical cores, 2 logical processors, using up to 2 threads

Optimize a model with 31 rows, 224 columns and 572 nonzeros
Model fingerprint: 0xfabd0345
Variable types: 14 continuous, 210 integer (210 binary)
Coefficient statistics:
  Matrix range     [1e+00, 1e+00]
  Objective range  [2e-01, 1e+01]
  Bounds range     [1e+00, 1e+01]
  RHS range        [1e+00, 2e+00]
Presolve removed 0 rows and 29 columns
Presolve time: 0.00s
Presolved: 31 rows, 195 columns, 558 nonzeros
Variable types: 0 continuous, 195 integer (195 binary)
Found heuristic solution: objective 5.1096652

Root relaxation: cutoff, 20 iterations, 0.00 seconds (0.00 work units)

    Nodes    |    Current Node    |     Objective Bounds      |     Work
 Expl Unexpl |  Obj  Depth IntInf | Incumbent    BestBd   Gap | It/Node Time

     0     0     cutoff    0         5.10967    5.10967  0.00%     -    0s

Explored 1 nodes (20 simplex iterations) in 0.01 seconds (0.00 work units)
Thread count was 2 (of 2 available processors)

Solution count 1: 5.10967 

Optimal solution found (tolerance 1.00e-04)
Best objective 5.109665205449e+00, best bound 5.109665205449e+00, gap 0.0000%

Gurobi 10.0.2 (linux64) logging started Mon 21 Aug 2023 08:22:01 PM -03

Set parameter LogFile to value "/home/ciro/Documents/ftsp-optimizer/Optimization/Data/Logs/burma14_3_1001_1001_2.log"
Gurobi Optimizer version 10.0.2 build v10.0.2rc0 (linux64)

CPU model: Intel(R) Core(TM) i7-7500U CPU @ 2.70GHz, instruction set [SSE2]
Thread count: 2 physical cores, 2 logical processors, using up to 2 threads

Optimize a model with 187 rows, 224 columns and 1040 nonzeros
Model fingerprint: 0x8e66c040
Variable types: 14 continuous, 210 integer (210 binary)
Coefficient statistics:
  Matrix range     [1e+00, 2e+01]
  Objective range  [2e-01, 1e+01]
  Bounds range     [1e+00, 1e+01]
  RHS range        [1e+00, 1e+01]
Presolve removed 0 rows and 16 columns
Presolve time: 0.00s
Presolved: 187 rows, 208 columns, 2060 nonzeros
Variable types: 13 continuous, 195 integer (195 binary)

Root relaxation: objective 5.274538e+00, 31 iterations, 0.00 seconds (0.00 work units)

    Nodes    |    Current Node    |     Objective Bounds      |     Work
 Expl Unexpl |  Obj  Depth IntInf | Incumbent    BestBd   Gap | It/Node Time

     0     0    5.27454    0   12          -    5.27454      -     -    0s
H    0     0                      34.2223049    5.27454  84.6%     -    0s
H    0     0                      33.5511854    5.27454  84.3%     -    0s
     0     0    8.32386    0   18   33.55119    8.32386  75.2%     -    0s
H    0     0                      28.0072625    8.32386  70.3%     -    0s
     0     0    8.32438    0   18   28.00726    8.32438  70.3%     -    0s
     0     0    8.56009    0    6   28.00726    8.56009  69.4%     -    0s
H    0     0                      23.3291048    8.56009  63.3%     -    0s
     0     0    8.56009    0    6   23.32910    8.56009  63.3%     -    0s
H    0     0                      21.2374326    8.56009  59.7%     -    0s
     0     0    8.56009    0    6   21.23743    8.56009  59.7%     -    0s
     0     0    8.56009    0    6   21.23743    8.56009  59.7%     -    0s
H    0     0                      18.0660004    8.56009  52.6%     -    0s
H    0     0                      16.7189698    8.69312  48.0%     -    0s
     0     2    8.69312    0    6   16.71897    8.69312  48.0%     -    0s
H   39    33                      16.6651681    8.88395  46.7%   4.1    0s
H   95    67                      16.3959748    8.96097  45.3%   3.7    0s
*   98    67              17      14.8320094    8.96097  39.6%   3.8    0s
*  107    67              16      14.0163173    8.96097  36.1%   4.1    0s
*  225   104              12      11.0326777    9.52113  13.7%   5.0    0s
*  228   104              12      10.6791021    9.52113  10.8%   5.0    0s
*  301    65              15      10.4251358    9.94295  4.63%   4.9    0s

Cutting planes:
  Learned: 3
  Gomory: 4
  Implied bound: 11
  MIR: 5
  Inf proof: 2
  Mod-K: 2
  RLT: 14
  Relax-and-lift: 2

Explored 353 nodes (1779 simplex iterations) in 0.33 seconds (0.10 work units)
Thread count was 2 (of 2 available processors)

Solution count 10: 10.4251 10.6791 11.0327 ... 21.2374

Optimal solution found (tolerance 1.00e-04)
Best objective 1.042513583120e+01, best bound 1.042513583120e+01, gap 0.0000%

Gurobi 10.0.2 (linux64) logging started Mon 21 Aug 2023 08:24:24 PM -03

Set parameter LogFile to value "/home/ciro/Documents/ftsp-optimizer/Optimization/Data/Logs/burma14_3_1001_1001_2.log"
Gurobi Optimizer version 10.0.2 build v10.0.2rc0 (linux64)

CPU model: Intel(R) Core(TM) i7-7500U CPU @ 2.70GHz, instruction set [SSE2]
Thread count: 2 physical cores, 2 logical processors, using up to 2 threads

Optimize a model with 187 rows, 224 columns and 1040 nonzeros
Model fingerprint: 0x8e66c040
Variable types: 14 continuous, 210 integer (210 binary)
Coefficient statistics:
  Matrix range     [1e+00, 2e+01]
  Objective range  [2e-01, 1e+01]
  Bounds range     [1e+00, 1e+01]
  RHS range        [1e+00, 1e+01]
Presolve removed 0 rows and 16 columns
Presolve time: 0.00s
Presolved: 187 rows, 208 columns, 2060 nonzeros
Variable types: 13 continuous, 195 integer (195 binary)

Root relaxation: objective 5.274538e+00, 31 iterations, 0.00 seconds (0.00 work units)

    Nodes    |    Current Node    |     Objective Bounds      |     Work
 Expl Unexpl |  Obj  Depth IntInf | Incumbent    BestBd   Gap | It/Node Time

     0     0    5.27454    0   12          -    5.27454      -     -    0s
H    0     0                      34.2223049    5.27454  84.6%     -    0s
H    0     0                      33.5511854    5.27454  84.3%     -    0s
     0     0    8.32386    0   18   33.55119    8.32386  75.2%     -    0s
H    0     0                      28.0072625    8.32386  70.3%     -    0s
     0     0    8.32438    0   18   28.00726    8.32438  70.3%     -    0s
     0     0    8.56009    0    6   28.00726    8.56009  69.4%     -    0s
H    0     0                      23.3291048    8.56009  63.3%     -    0s
     0     0    8.56009    0    6   23.32910    8.56009  63.3%     -    0s
H    0     0                      21.2374326    8.56009  59.7%     -    0s
     0     0    8.56009    0    6   21.23743    8.56009  59.7%     -    0s
     0     0    8.56009    0    6   21.23743    8.56009  59.7%     -    0s
H    0     0                      18.0660004    8.56009  52.6%     -    0s
H    0     0                      16.7189698    8.69312  48.0%     -    0s
     0     2    8.69312    0    6   16.71897    8.69312  48.0%     -    0s
H   39    33                      16.6651681    8.88395  46.7%   4.1    0s
H   95    67                      16.3959748    8.96097  45.3%   3.7    0s
*   98    67              17      14.8320094    8.96097  39.6%   3.8    0s
*  107    67              16      14.0163173    8.96097  36.1%   4.1    0s
*  225   104              12      11.0326777    9.52113  13.7%   5.0    0s
*  228   104              12      10.6791021    9.52113  10.8%   5.0    0s
*  301    65              15      10.4251358    9.94295  4.63%   4.9    0s

Cutting planes:
  Learned: 3
  Gomory: 4
  Implied bound: 11
  MIR: 5
  Inf proof: 2
  Mod-K: 2
  RLT: 14
  Relax-and-lift: 2

Explored 353 nodes (1779 simplex iterations) in 0.33 seconds (0.10 work units)
Thread count was 2 (of 2 available processors)

Solution count 10: 10.4251 10.6791 11.0327 ... 21.2374

Optimal solution found (tolerance 1.00e-04)
Best objective 1.042513583120e+01, best bound 1.042513583120e+01, gap 0.0000%

Gurobi 10.0.2 (linux64) logging started Tue 22 Aug 2023 09:59:48 AM -03

Set parameter LogFile to value "/home/ciro/Documents/ftsp-optimizer/Optimization/Data/Logs/burma14_3_1001_1001_2.log"
Gurobi Optimizer version 10.0.2 build v10.0.2rc0 (linux64)

CPU model: Intel(R) Core(TM) i7-7500U CPU @ 2.70GHz, instruction set [SSE2]
Thread count: 2 physical cores, 2 logical processors, using up to 2 threads

Optimize a model with 187 rows, 224 columns and 1037 nonzeros
Model fingerprint: 0x6a7d4837
Variable types: 14 continuous, 210 integer (210 binary)
Coefficient statistics:
  Matrix range     [1e+00, 2e+01]
  Objective range  [2e-01, 1e+01]
  Bounds range     [1e+00, 1e+01]
  RHS range        [1e+00, 1e+01]
Found heuristic solution: objective 30.2073837
Presolve removed 0 rows and 19 columns
Presolve time: 0.00s
Presolved: 187 rows, 205 columns, 2044 nonzeros
Variable types: 13 continuous, 192 integer (192 binary)

Root relaxation: objective 8.465235e+00, 34 iterations, 0.00 seconds (0.00 work units)

    Nodes    |    Current Node    |     Objective Bounds      |     Work
 Expl Unexpl |  Obj  Depth IntInf | Incumbent    BestBd   Gap | It/Node Time

     0     0    8.46524    0   18   30.20738    8.46524  72.0%     -    0s
H    0     0                      26.7003125    8.46524  68.3%     -    0s
     0     0   11.26332    0   20   26.70031   11.26332  57.8%     -    0s
     0     0   11.70815    0    9   26.70031   11.70815  56.1%     -    0s
H    0     0                      20.4859052   11.70815  42.8%     -    0s
     0     0   11.70815    0    9   20.48591   11.70815  42.8%     -    0s
     0     0   12.00043    0   12   20.48591   12.00043  41.4%     -    0s
     0     0   12.00043    0   12   20.48591   12.00043  41.4%     -    0s
     0     0   12.00043    0   12   20.48591   12.00043  41.4%     -    0s
H    0     0                      19.1667296   12.00043  37.4%     -    0s
     0     2   12.15368    0   12   19.16673   12.15368  36.6%     -    0s
H   18    19                      18.9680727   12.47160  34.2%   6.2    0s
H   29    32                      18.7481838   12.53317  33.1%   5.0    0s
H  179    87                      17.6733672   13.09576  25.9%   4.6    0s
*  473   163              10      17.5198323   13.99070  20.1%   5.1    0s
*  855   182              12      17.3884289   14.66772  15.6%   5.0    0s
* 1006   126              14      17.0709659   14.96123  12.4%   5.2    0s
* 1042    74              10      16.4085579   14.96123  8.82%   5.2    0s
* 1070    74              11      16.3955852   14.96123  8.75%   5.2    0s

Cutting planes:
  Gomory: 4
  Implied bound: 14
  Clique: 1
  MIR: 11
  Inf proof: 1
  Mod-K: 1
  RLT: 12
  Relax-and-lift: 10

Explored 1264 nodes (6777 simplex iterations) in 0.43 seconds (0.23 work units)
Thread count was 2 (of 2 available processors)

Solution count 10: 16.3956 16.4086 17.071 ... 20.4859

Optimal solution found (tolerance 1.00e-04)
Best objective 1.639558523257e+01, best bound 1.639558523257e+01, gap 0.0000%

Gurobi 10.0.2 (linux64) logging started Tue 22 Aug 2023 10:03:31 AM -03

Set parameter LogFile to value "/home/ciro/Documents/ftsp-optimizer/Optimization/Data/Logs/burma14_3_1001_1001_2.log"
Gurobi Optimizer version 10.0.2 build v10.0.2rc0 (linux64)

CPU model: Intel(R) Core(TM) i7-7500U CPU @ 2.70GHz, instruction set [SSE2]
Thread count: 2 physical cores, 2 logical processors, using up to 2 threads

Optimize a model with 187 rows, 224 columns and 1037 nonzeros
Model fingerprint: 0x6a7d4837
Variable types: 14 continuous, 210 integer (210 binary)
Coefficient statistics:
  Matrix range     [1e+00, 2e+01]
  Objective range  [2e-01, 1e+01]
  Bounds range     [1e+00, 1e+01]
  RHS range        [1e+00, 1e+01]
Found heuristic solution: objective 30.2073837
Presolve removed 0 rows and 19 columns
Presolve time: 0.01s
Presolved: 187 rows, 205 columns, 2044 nonzeros
Variable types: 13 continuous, 192 integer (192 binary)

Root relaxation: objective 8.465235e+00, 34 iterations, 0.00 seconds (0.00 work units)

    Nodes    |    Current Node    |     Objective Bounds      |     Work
 Expl Unexpl |  Obj  Depth IntInf | Incumbent    BestBd   Gap | It/Node Time

     0     0    8.46524    0   18   30.20738    8.46524  72.0%     -    0s
H    0     0                      26.7003125    8.46524  68.3%     -    0s
     0     0   11.26332    0   20   26.70031   11.26332  57.8%     -    0s
     0     0   11.70815    0    9   26.70031   11.70815  56.1%     -    0s
H    0     0                      20.4859052   11.70815  42.8%     -    0s
     0     0   11.70815    0    9   20.48591   11.70815  42.8%     -    0s
     0     0   12.00043    0   12   20.48591   12.00043  41.4%     -    0s
     0     0   12.00043    0   12   20.48591   12.00043  41.4%     -    0s
     0     0   12.00043    0   12   20.48591   12.00043  41.4%     -    0s
H    0     0                      19.1667296   12.00043  37.4%     -    0s
     0     2   12.15368    0   12   19.16673   12.15368  36.6%     -    0s
H   18    19                      18.9680727   12.47160  34.2%   6.2    0s
H   29    32                      18.7481838   12.53317  33.1%   5.0    0s
H  179    87                      17.6733672   13.09576  25.9%   4.6    0s
*  473   163              10      17.5198323   13.99070  20.1%   5.1    0s
*  855   182              12      17.3884289   14.66772  15.6%   5.0    0s
* 1006   126              14      17.0709659   14.96123  12.4%   5.2    0s
* 1042    74              10      16.4085579   14.96123  8.82%   5.2    0s
* 1070    74              11      16.3955852   14.96123  8.75%   5.2    0s

Cutting planes:
  Gomory: 4
  Implied bound: 14
  Clique: 1
  MIR: 11
  Inf proof: 1
  Mod-K: 1
  RLT: 12
  Relax-and-lift: 10

Explored 1264 nodes (6777 simplex iterations) in 0.60 seconds (0.23 work units)
Thread count was 2 (of 2 available processors)

Solution count 10: 16.3956 16.4086 17.071 ... 20.4859

Optimal solution found (tolerance 1.00e-04)
Best objective 1.639558523257e+01, best bound 1.639558523257e+01, gap 0.0000%

Gurobi 10.0.2 (linux64) logging started Tue 22 Aug 2023 10:06:39 AM -03

Set parameter LogFile to value "/home/ciro/Documents/ftsp-optimizer/Optimization/Data/Logs/burma14_3_1001_1001_2.log"
Gurobi Optimizer version 10.0.2 build v10.0.2rc0 (linux64)

CPU model: Intel(R) Core(TM) i7-7500U CPU @ 2.70GHz, instruction set [SSE2]
Thread count: 2 physical cores, 2 logical processors, using up to 2 threads

Optimize a model with 187 rows, 224 columns and 1040 nonzeros
Model fingerprint: 0x860f266a
Variable types: 14 continuous, 210 integer (210 binary)
Coefficient statistics:
  Matrix range     [1e+00, 2e+01]
  Objective range  [2e-01, 1e+01]
  Bounds range     [1e+00, 1e+01]
  RHS range        [1e+00, 1e+01]
Presolve removed 0 rows and 16 columns
Presolve time: 0.00s
Presolved: 187 rows, 208 columns, 2061 nonzeros
Variable types: 13 continuous, 195 integer (195 binary)

Root relaxation: objective 7.719717e+00, 31 iterations, 0.00 seconds (0.00 work units)

    Nodes    |    Current Node    |     Objective Bounds      |     Work
 Expl Unexpl |  Obj  Depth IntInf | Incumbent    BestBd   Gap | It/Node Time

     0     0    7.71972    0   16          -    7.71972      -     -    0s
H    0     0                      42.5963002    7.71972  81.9%     -    0s
     0     0   10.28822    0   15   42.59630   10.28822  75.8%     -    0s
H    0     0                      18.9326642   10.28822  45.7%     -    0s
H    0     0                      14.9499710   10.28822  31.2%     -    0s
     0     0   10.45223    0   15   14.94997   10.45223  30.1%     -    0s
     0     0   10.45223    0   15   14.94997   10.45223  30.1%     -    0s
     0     0   10.59523    0    6   14.94997   10.59523  29.1%     -    0s
     0     0   10.59523    0    6   14.94997   10.59523  29.1%     -    0s
     0     0   10.59523    0    6   14.94997   10.59523  29.1%     -    0s
     0     0   10.59523    0    6   14.94997   10.59523  29.1%     -    0s
     0     0   10.59523    0    6   14.94997   10.59523  29.1%     -    0s
     0     0   10.59523    0    6   14.94997   10.59523  29.1%     -    0s
     0     0   10.61055    0   16   14.94997   10.61055  29.0%     -    0s
     0     0   10.61055    0   23   14.94997   10.61055  29.0%     -    0s
H    0     0                      14.8267654   10.61055  28.4%     -    0s
     0     0   10.61055    0    6   14.82677   10.61055  28.4%     -    0s
     0     0   10.61055    0    6   14.82677   10.61055  28.4%     -    0s
     0     0   10.61055    0    6   14.82677   10.61055  28.4%     -    0s
     0     0   10.61055    0    6   14.82677   10.61055  28.4%     -    0s
     0     2   10.70448    0    6   14.82677   10.70448  27.8%     -    0s
*  452    10              12      14.4416450   12.96713  10.2%   5.8    0s
*  458    10               6      13.9323938   12.96713  6.93%   5.9    0s

Cutting planes:
  Learned: 1
  Gomory: 3
  Implied bound: 12
  MIR: 6
  RLT: 14

Explored 511 nodes (3207 simplex iterations) in 0.39 seconds (0.14 work units)
Thread count was 2 (of 2 available processors)

Solution count 6: 13.9324 14.4416 14.8268 ... 42.5963

Optimal solution found (tolerance 1.00e-04)
Best objective 1.393239382211e+01, best bound 1.393239382211e+01, gap 0.0000%

Gurobi 10.0.2 (linux64) logging started Tue 22 Aug 2023 10:06:49 AM -03

Set parameter LogFile to value "/home/ciro/Documents/ftsp-optimizer/Optimization/Data/Logs/burma14_3_1001_1001_2.log"
Gurobi Optimizer version 10.0.2 build v10.0.2rc0 (linux64)

CPU model: Intel(R) Core(TM) i7-7500U CPU @ 2.70GHz, instruction set [SSE2]
Thread count: 2 physical cores, 2 logical processors, using up to 2 threads

Optimize a model with 187 rows, 224 columns and 1040 nonzeros
Model fingerprint: 0x860f266a
Variable types: 14 continuous, 210 integer (210 binary)
Coefficient statistics:
  Matrix range     [1e+00, 2e+01]
  Objective range  [2e-01, 1e+01]
  Bounds range     [1e+00, 1e+01]
  RHS range        [1e+00, 1e+01]
Presolve removed 0 rows and 16 columns
Presolve time: 0.00s
Presolved: 187 rows, 208 columns, 2061 nonzeros
Variable types: 13 continuous, 195 integer (195 binary)

Root relaxation: objective 7.719717e+00, 31 iterations, 0.00 seconds (0.00 work units)

    Nodes    |    Current Node    |     Objective Bounds      |     Work
 Expl Unexpl |  Obj  Depth IntInf | Incumbent    BestBd   Gap | It/Node Time

     0     0    7.71972    0   16          -    7.71972      -     -    0s
H    0     0                      42.5963002    7.71972  81.9%     -    0s
     0     0   10.28822    0   15   42.59630   10.28822  75.8%     -    0s
H    0     0                      18.9326642   10.28822  45.7%     -    0s
H    0     0                      14.9499710   10.28822  31.2%     -    0s
     0     0   10.45223    0   15   14.94997   10.45223  30.1%     -    0s
     0     0   10.45223    0   15   14.94997   10.45223  30.1%     -    0s
     0     0   10.59523    0    6   14.94997   10.59523  29.1%     -    0s
     0     0   10.59523    0    6   14.94997   10.59523  29.1%     -    0s
     0     0   10.59523    0    6   14.94997   10.59523  29.1%     -    0s
     0     0   10.59523    0    6   14.94997   10.59523  29.1%     -    0s
     0     0   10.59523    0    6   14.94997   10.59523  29.1%     -    0s
     0     0   10.59523    0    6   14.94997   10.59523  29.1%     -    0s
     0     0   10.61055    0   16   14.94997   10.61055  29.0%     -    0s
     0     0   10.61055    0   23   14.94997   10.61055  29.0%     -    0s
H    0     0                      14.8267654   10.61055  28.4%     -    0s
     0     0   10.61055    0    6   14.82677   10.61055  28.4%     -    0s
     0     0   10.61055    0    6   14.82677   10.61055  28.4%     -    0s
     0     0   10.61055    0    6   14.82677   10.61055  28.4%     -    0s
     0     0   10.61055    0    6   14.82677   10.61055  28.4%     -    0s
     0     2   10.70448    0    6   14.82677   10.70448  27.8%     -    0s
*  452    10              12      14.4416450   12.96713  10.2%   5.8    0s
*  458    10               6      13.9323938   12.96713  6.93%   5.9    0s

Cutting planes:
  Learned: 1
  Gomory: 3
  Implied bound: 12
  MIR: 6
  RLT: 14

Explored 511 nodes (3207 simplex iterations) in 0.27 seconds (0.14 work units)
Thread count was 2 (of 2 available processors)

Solution count 6: 13.9324 14.4416 14.8268 ... 42.5963

Optimal solution found (tolerance 1.00e-04)
Best objective 1.393239382211e+01, best bound 1.393239382211e+01, gap 0.0000%
